100
128
33
9
34
2
60
16
21
52
26
18
56
7
15
22
47
4
46
32
37
29
28
26
62
11
54
13
2
41
40
47
42
44
42
27
28
44
33
23
32
17
8
23
20
15
29
30
20
15
44
32
52
39
30
1
29
21
26
41
2
58
56
29
18
3
21
18
35
52
19
29
4
36
58
20
44
22
62
45
26
2
55
52
27
49
54
6
64
8
37
48
48
31
64
60
58
64
48
43
62
64